\ Model Mix_diff_copy
\ LP format - for model browsing. Use MPS format to capture full model detail.
Minimize
 
Subject To
 R0: C0 <= 1.194091796875
 R5: 1.255256772041321 C0 - 2.670398712158203 C1 + C3 = 2.376555442810059
 R6: C8 + C9 = 1
 qc0: - 0.5241518020629883 C2 + [ - 2.879850149154663 C0 * C2
   + 0.8426412343978882 C1 * C2 + C2 ^2 ] = 0
 qc1: 1.901737302541733 C8 + [ 3.975454568862915 C2 * C8
   - 1.324205279350281 C3 * C8 ] >= 0
 qc2: - 1.426145941019058 C9 + [ 5.503687620162964 C2 * C9
   - 4.582751989364624 C3 * C9 ] >= 0
Bounds
 C0 free
 C1 >= 3.755991020202637
 C2 free
 C3 free
Binaries
 C8 C9
End
